c Cardinality constraint <=k(x_1,...,x_n) for k = 3 and n = 4.
p cnf 13 18
-1 5 0
-6 0
-7 0
-2 8 0
-5 8 0
-2 -5 9 0
-6 9 0
-2 -6 10 0
-7 10 0
-2 -7 0
-3 11 0
-8 11 0
-3 -8 12 0
-9 12 0
-3 -9 13 0
-10 13 0
-3 -10 0
-4 -13 0
